NAME: .\SDVRP instances\p01\p01_7090
BEST_KNOWN: 0
COMMENT: 0
DIMENSION: 51
CAPACITY: 160
EDGE_WEIGHT_FORMAT: FUNCTION
EDGE_WEIGHT_TYPE: EXACT_2D
NODE_COORD_SECTION
1 0 0
2 7 12
3 19 9
4 22 24
5 -10 -14
6 10 -10
7 -9 7
8 -13 23
9 1 22
10 22 -7
11 21 -19
12 12 1
13 1 -8
14 -25 -15
15 -18 2
16 6 -24
17 22 1
18 -3 -17
19 -13 -7
20 -17 -27
21 27 18
22 32 2
23 12 17
24 -14 17
25 -22 12
26 -23 -2
27 -3 28
28 0 8
29 13 27
30 28 8
31 28 -13
32 7 29
33 8 6
34 16 -30
35 31 -7
36 32 23
37 33 29
38 2 -18
39 15 -5
40 29 -25
41 -25 -34
42 -20 -23
43 -9 -30
44 -25 24
45 0 -25
46 9 -30
47 2 -1
48 -5 -8
49 -5 15
50 18 -12
51 26 -3
DEMAND_SECTION
1 0
2 139
3 124
4 119
5 129
6 141
7 139
8 127
9 115
10 118
11 113
12 137
13 124
14 126
15 128
16 134
17 121
18 114
19 128
20 139
21 129
22 115
23 132
24 132
25 130
26 137
27 135
28 113
29 136
30 116
31 115
32 139
33 137
34 138
35 118
36 139
37 127
38 136
39 127
40 127
41 138
42 118
43 114
44 132
45 133
46 140
47 121
48 127
49 125
50 139
51 131
DEPOT_SECTION
1
-1
EOF
